n_machines = 3;
n_resources = 6;
n_jobs = 29;
horizon = 1461;
LB = 487;
n_jobs_per_resource = [5, 4, 8, 3, 6, 3];
duration = [11, 56, 89, 18, 24, 61, 50, 28, 59, 55, 27, 70, 13, 62, 90, 24, 19, 31, 84, 10, 42, 90, 65, 93, 90, 48, 39, 67, 46]